(set-option :produce-models true); benchmark generated from python API
(set-info :status unknown)
(declare-fun l_0_0_5 () Real)
(declare-fun l_0_0_4 () Real)
(declare-fun l_0_0_1 () Real)
(declare-fun _a_0_ () Real)
(declare-fun l_0_0_6 () Real)
(declare-fun l_0_0_2 () Real)
(declare-fun _a_1_ () Real)
(declare-fun l_0_0_3 () Real)
(declare-fun l_0_1_7 () Real)
(declare-fun l_0_1_4 () Real)
(declare-fun l_0_1_1 () Real)
(declare-fun l_0_1_9 () Real)
(declare-fun l_0_1_8 () Real)
(declare-fun l_0_1_6 () Real)
(declare-fun l_0_1_5 () Real)
(declare-fun l_0_1_3 () Real)
(declare-fun l_0_1_2 () Real)
(declare-fun l_0_2_8 () Real)
(declare-fun l_0_2_7 () Real)
(declare-fun l_0_2_4 () Real)
(declare-fun l_0_2_5 () Real)
(declare-fun l_0_2_2 () Real)
(declare-fun l_0_2_1 () Real)
(declare-fun l_0_2_9 () Real)
(declare-fun l_0_2_6 () Real)
(declare-fun l_0_2_3 () Real)
(assert
 (let ((?x38 (- (- _a_0_ (* (* 1.0 l_0_0_1) l_0_0_1)) (* (* 2.0 l_0_0_4) l_0_0_5))))
 (= ?x38 0.0)))
(assert
 (let ((?x77 (* l_0_0_6 l_0_0_6)))
 (let ((?x75 (* l_0_0_5 l_0_0_5)))
 (let ((?x59 (* l_0_0_1 l_0_0_1)))
 (let ((?x78 (- (- (+ (- _a_1_ (* (* 2.0 l_0_0_1) l_0_0_2)) ?x59) ?x75) ?x77)))
 (= ?x78 0.0))))))
(assert
 (= (- 1.0 (* l_0_0_4 l_0_0_4)) 0.0))
(assert
 (let ((?x72 (* (* 2.0 l_0_0_1) l_0_0_2)))
 (let ((?x105 (- (- ?x72 (* (* 1.0 l_0_0_2) l_0_0_2)) (* (* 1.0 l_0_0_3) l_0_0_3))))
 (= ?x105 0.0))))
(assert
 (= (+ (* l_0_0_2 l_0_0_2) (* l_0_0_3 l_0_0_3)) 0.0))
(assert
 (>= l_0_0_1 0.0))
(assert
 (>= l_0_0_3 0.0))
(assert
 (>= l_0_0_4 0.0))
(assert
 (>= l_0_0_6 0.0))
(assert
 (let ((?x127 (* l_0_1_7 l_0_1_7)))
 (let ((?x123 (* l_0_1_4 l_0_1_4)))
 (let ((?x125 (* (/ 51.0 100.0) ?x123)))
 (= (+ (- (+ (* (* (- 1.0) l_0_1_1) l_0_1_1) ?x125) ?x127) (/ 3.0 2.0)) 0.0)))))
(assert
 (let ((?x165 (* l_0_1_9 l_0_1_9)))
 (let ((?x163 (* l_0_1_8 l_0_1_8)))
 (let ((?x160 (* l_0_1_6 l_0_1_6)))
 (let ((?x161 (* (/ 51.0 100.0) ?x160)))
 (let ((?x157 (* l_0_1_5 l_0_1_5)))
 (let ((?x158 (* (/ 51.0 100.0) ?x157)))
 (let ((?x123 (* l_0_1_4 l_0_1_4)))
 (let ((?x145 (- (* (* (* (- 2.0) _a_0_) l_0_1_1) l_0_1_2) (* (* _a_1_ l_0_1_1) l_0_1_1))))
 (let ((?x151 (- (- ?x145 (* (* 1.0 l_0_1_2) l_0_1_2)) (* (* 1.0 l_0_1_3) l_0_1_3))))
 (let ((?x162 (+ (+ (- (+ ?x151 (* (* (/ 14.0 5.0) l_0_1_4) l_0_1_5)) ?x123) ?x158) ?x161)))
 (= (- (- (- ?x162 ?x163) ?x165) 1.0) 0.0))))))))))))
(assert
 (let ((?x123 (* l_0_1_4 l_0_1_4)))
 (let ((?x218 (* (/ 7.0 5.0) ?x123)))
 (let ((?x212 (- (* (* (- _a_0_) l_0_1_1) l_0_1_1) (* (* 2.0 l_0_1_1) l_0_1_2))))
 (let ((?x222 (- (+ (+ ?x212 (* (* (/ 51.0 50.0) l_0_1_4) l_0_1_5)) ?x218) (* (* 2.0 l_0_1_7) l_0_1_8))))
 (= (+ ?x222 (/ 1.0 2.0)) 0.0))))))
(assert
 (let ((?x160 (* l_0_1_6 l_0_1_6)))
 (let ((?x256 (* (/ 7.0 5.0) ?x160)))
 (let ((?x157 (* l_0_1_5 l_0_1_5)))
 (let ((?x254 (* (/ 7.0 5.0) ?x157)))
 (let ((?x250 (- (* (- _a_0_) (+ (* l_0_1_2 l_0_1_2) (* l_0_1_3 l_0_1_3))) (* (* (* 2.0 _a_1_) l_0_1_1) l_0_1_2))))
 (= (+ (+ (- ?x250 (* (* 2.0 l_0_1_4) l_0_1_5)) ?x254) ?x256) 0.0)))))))
(assert
 (let ((?x160 (* l_0_1_6 l_0_1_6)))
 (let ((?x157 (* l_0_1_5 l_0_1_5)))
 (let ((?x279 (- (* (- _a_1_) (+ (* l_0_1_2 l_0_1_2) (* l_0_1_3 l_0_1_3))) ?x157)))
 (= (- ?x279 ?x160) 0.0)))))
(assert
 (>= l_0_1_1 0.0))
(assert
 (>= l_0_1_3 0.0))
(assert
 (>= l_0_1_4 0.0))
(assert
 (>= l_0_1_6 0.0))
(assert
 (>= l_0_1_7 0.0))
(assert
 (>= l_0_1_9 0.0))
(assert
 (let ((?x309 (- (- (* (* (- _a_0_) l_0_2_1) l_0_2_1) (* (/ 8.0 5.0) _a_0_)) (* (* 2.0 l_0_2_1) l_0_2_2))))
 (let ((?x315 (- (- ?x309 (* (* (/ 51.0 50.0) l_0_2_4) l_0_2_5)) (* (* (/ 7.0 5.0) l_0_2_4) l_0_2_4))))
 (= (- ?x315 (* (* 2.0 l_0_2_7) l_0_2_8)) 0.0))))
(assert
 (let ((?x382 (* l_0_2_9 l_0_2_9)))
 (let ((?x380 (* l_0_2_8 l_0_2_8)))
 (let ((?x340 (* l_0_2_4 l_0_2_4)))
 (let ((?x362 (* (/ 64.0 25.0) _a_1_)))
 (let ((?x360 (- (+ (* (* (* (- 2.0) _a_0_) l_0_2_1) l_0_2_2) (* (/ 8.0 5.0) _a_0_)) (* (* _a_1_ l_0_2_1) l_0_2_1))))
 (let ((?x369 (- (- (+ ?x360 ?x362) (* (* 1.0 l_0_2_2) l_0_2_2)) (* (* 1.0 l_0_2_3) l_0_2_3))))
 (let ((?x376 (- (+ (- ?x369 (* (* (/ 14.0 5.0) l_0_2_4) l_0_2_5)) ?x340) (* (* (/ 51.0 100.0) l_0_2_5) l_0_2_5))))
 (= (- (- (- ?x376 (* (* (/ 51.0 100.0) l_0_2_6) l_0_2_6)) ?x380) ?x382) 0.0)))))))))
(assert
 (let ((?x432 (* (/ 128.0 25.0) _a_1_)))
 (let ((?x430 (- (* (- _a_0_) (+ (* l_0_2_2 l_0_2_2) (* l_0_2_3 l_0_2_3))) (* (* (* 2.0 _a_1_) l_0_2_1) l_0_2_2))))
 (let ((?x439 (- (+ (- ?x430 ?x432) (* (* 2.0 l_0_2_4) l_0_2_5)) (* (* (/ 7.0 5.0) l_0_2_5) l_0_2_5))))
 (= (- ?x439 (* (* (/ 7.0 5.0) l_0_2_6) l_0_2_6)) 0.0)))))
(assert
 (let ((?x413 (* l_0_2_6 l_0_2_6)))
 (let ((?x407 (* l_0_2_5 l_0_2_5)))
 (let ((?x362 (* (/ 64.0 25.0) _a_1_)))
 (let ((?x476 (+ (* (- _a_1_) (+ (* l_0_2_2 l_0_2_2) (* l_0_2_3 l_0_2_3))) ?x362)))
 (= (+ (+ ?x476 ?x407) ?x413) 0.0))))))
(assert
 (let ((?x492 (* l_0_2_7 l_0_2_7)))
 (let ((?x491 (- (* (* (- 1.0) l_0_2_1) l_0_2_1) (* (* (/ 51.0 100.0) l_0_2_4) l_0_2_4))))
 (= (+ (- ?x491 ?x492) 1.0) 0.0))))
(assert
 (>= l_0_2_1 0.0))
(assert
 (>= l_0_2_3 0.0))
(assert
 (>= l_0_2_4 0.0))
(assert
 (>= l_0_2_6 0.0))
(assert
 (>= l_0_2_7 0.0))
(assert
 (>= l_0_2_9 0.0))
(check-sat)
(get-model)